100
[10,13,14,15,16,17,18,19,20,21,22,24,25,26,30,31,32,33,34,35,38,39,40,41,42,43,44,45,46,47,48,50,51,52,54,56,57,58,59,61,62,63,64,65,67,68,69,70]
[2,1,4,3,3,2,1,3,2,3,3,3,5,2,1,1,1,3,2,2,2,1,3,2,2,3,1,3,1,1,3,1,2,3,1,2,1,4,3,1,2,1,1,3,1,2,2,1]
